SECTION Graph
Nodes 160
Edges 159

E 1 75 284
E 1 126 288
E 1 155 287
E 2 157 288
E 3 15 287
E 3 114 288
E 3 121 288
E 4 40 286
E 5 70 284
E 5 74 287
E 5 88 288
E 5 108 288
E 5 125 283
E 6 130 288
E 7 16 287
E 7 139 287
E 7 160 288
E 8 104 286
E 8 159 289
E 9 96 287
E 9 99 288
E 10 148 284
E 10 153 286
E 11 45 289
E 11 85 284
E 11 157 286
E 12 33 285
E 13 19 288
E 13 83 285
E 14 46 288
E 15 111 288
E 17 67 289
E 18 129 290
E 19 72 286
E 19 97 287
E 20 94 287
E 20 141 287
E 21 36 287
E 21 70 285
E 21 73 290
E 21 90 289
E 21 129 289
E 21 156 287
E 22 75 289
E 23 41 288
E 23 58 288
E 23 87 290
E 23 133 286
E 24 103 289
E 25 64 288
E 26 83 287
E 27 72 288
E 28 87 289
E 29 89 287
E 29 91 287
E 29 101 287
E 29 114 287
E 29 135 287
E 30 34 287
E 30 110 281
E 30 154 288
E 31 35 288
E 32 55 286
E 33 51 289
E 33 65 287
E 33 69 284
E 33 127 287
E 33 149 286
E 34 43 287
E 34 131 285
E 35 67 287
E 35 69 287
E 36 75 287
E 37 80 289
E 38 132 288
E 38 144 288
E 39 58 287
E 40 112 287
E 42 66 283
E 42 143 287
E 44 58 283
E 46 140 287
E 46 144 287
E 47 74 289
E 48 116 288
E 49 78 288
E 50 101 287
E 52 56 288
E 53 99 287
E 54 117 286
E 55 149 289
E 56 76 287
E 57 84 288
E 57 113 288
E 59 125 287
E 60 62 289
E 61 99 287
E 62 79 288
E 62 102 289
E 62 139 286
E 63 72 282
E 64 92 287
E 64 100 287
E 64 120 287
E 65 93 288
E 65 119 284
E 66 78 288
E 66 151 286
E 68 77 284
E 68 116 286
E 68 148 287
E 70 130 286
E 70 135 286
E 71 91 289
E 72 115 289
E 72 116 285
E 75 80 286
E 76 106 288
E 76 128 285
E 78 96 285
E 78 149 287
E 79 117 284
E 81 123 286
E 82 110 289
E 86 107 287
E 86 112 286
E 88 145 284
E 91 152 286
E 94 97 287
E 94 150 289
E 94 157 285
E 95 118 289
E 96 107 287
E 97 100 285
E 98 155 290
E 101 138 288
E 103 133 287
E 105 130 286
E 109 118 283
E 109 144 287
E 109 154 285
E 112 133 286
E 112 148 285
E 113 119 287
E 116 142 286
E 120 152 284
E 122 153 288
E 123 149 285
E 123 154 287
E 124 136 288
E 128 154 287
E 129 158 286
E 131 139 286
E 134 160 289
E 135 147 286
E 136 138 285
E 137 156 284
E 141 146 287
E 152 159 288
END
SECTION Terminals
T 1
T 2
T 3
T 4
T 5
T 6
T 7
T 8
T 9
T 10
T 11
T 12
T 13
T 14
T 15
T 16
T 17
T 18
T 19
T 20
T 21
T 22
T 23
T 24
T 25
T 26
T 27
T 28
T 29
T 30
T 31
T 32
T 33
T 34
T 35
T 36
T 37
T 38
T 39
T 40
T 41
T 42
T 43
T 44
T 45
T 46
T 47
T 48
T 49
T 50
T 51
T 52
T 53
T 54
T 55
T 56
T 57
T 58
T 59
T 60
T 61
T 62
T 63
T 64
T 65
T 66
T 67
T 68
T 69
T 70
T 71
T 72
T 73
T 74
T 75
T 76
T 77
T 78
T 79
T 80
T 81
T 82
T 83
T 84
T 85
T 86
T 87
T 88
T 89
T 90
T 91
T 92
T 93
T 94
T 95
T 96
T 97
T 98
T 99
T 100
T 101
T 102
T 103
T 104
T 105
T 106
T 107
T 108
T 109
T 110
T 111
T 112
T 113
T 114
T 115
T 116
T 117
T 118
T 119
T 120
T 121
T 122
T 123
T 124
T 125
T 126
T 127
T 128
T 129
T 130
T 131
T 132
T 133
T 134
T 135
T 136
T 137
T 138
T 139
T 140
T 141
T 142
T 143
T 144
T 145
T 146
T 147
T 148
T 149
T 150
T 151
T 152
T 153
T 154
T 155
T 156
T 157
T 158
T 159
T 160
END
SECTION Cost
45608
END
